
List of user-set options:

                                    Name   Value                used
                           compl_inf_tol = 1                     yes
                         constr_viol_tol = 1                     yes
                            dual_inf_tol = 1000                  yes
                           linear_solver = ma97                  yes
                              ma86_small = 1e-30                  no
                                  ma86_u = 0.0001                 no
                              ma97_order = best                  yes
                              ma97_small = 1e-30                 yes
                            ma97_switch1 = at_start              yes
                            ma97_switch2 = od_hd_reuse           yes
                                  ma97_u = 1e-06                 yes
                               ma97_umax = 0.5                   yes
                                max_iter = 1000                  yes
                    max_refinement_steps = 20                    yes
                    min_refinement_steps = 5                     yes
                                 mu_init = 1e-06                 yes
           mu_superlinear_decrease_power = 1.25                  yes
                   nlp_scaling_min_value = 1e-08                 yes
                        option_file_name = Preset_Case_881_pf.opt  yes
                             output_file = ./tmp/Preset_Case_881_pf.output  yes
                      print_user_options = yes                   yes
        required_infeasibility_reduction = 1                      no
                                     tol = 1e-08                 yes
                   warm_start_bound_frac = 1e-20                 yes
                   warm_start_bound_push = 1e-20                 yes
                   warm_start_init_point = yes                   yes
              warm_start_mult_bound_push = 1e-20                 yes
                warm_start_mult_init_max = 1e+40                 yes
             warm_start_slack_bound_frac = 1e-20                 yes
             warm_start_slack_bound_push = 1e-20                 yes

******************************************************************************
This program contains Ipopt, a library for large-scale nonlinear optimization.
 Ipopt is released as open source code under the Eclipse Public License (EPL).
         For more information visit http://projects.coin-or.org/Ipopt
******************************************************************************

This is Ipopt version 3.12.10, running with linear solver ma97.

Number of nonzeros in equality constraint Jacobian...:   123442
Number of nonzeros in inequality constraint Jacobian.:      213
Number of nonzeros in Lagrangian Hessian.............:    49069

Total number of variables............................:    31591
                     variables with only lower bounds:    12912
                variables with lower and upper bounds:    15130
                     variables with only upper bounds:        0
Total number of equality constraints.................:    31483
Total number of inequality constraints...............:       25
        inequality constraints with only lower bounds:        4
   inequality constraints with lower and upper bounds:        0
        inequality constraints with only upper bounds:       21

iter    objective    inf_pr   inf_du lg(mu)  ||d||  lg(rg) alpha_du alpha_pr  ls
   0 -5.3884634e+00 4.05e-03 1.02e+00  -6.0 0.00e+00    -  0.00e+00 0.00e+00   0
   1 -5.3878829e+00 7.45e-01 9.25e+00  -6.0 4.21e+05    -  7.58e-05 2.69e-04h  3
   2 -5.3915072e+00 7.45e-01 3.74e+01  -6.0 1.46e+04    -  1.63e-01 7.23e-04h  1
   3 -5.6801712e+00 5.51e+00 3.15e+03  -6.0 4.97e+03    -  1.15e-01 3.13e-01f  1
   4 -5.7430606e+00 5.71e+00 1.25e+03  -6.0 2.85e+03    -  3.79e-01 1.20e-01h  1
   5 -5.7301467e+00 2.05e+00 1.38e+04  -6.0 4.39e+00  -4.0 2.19e-01 6.42e-01h  1
   6 -5.8566647e+00 8.62e+00 9.74e+03  -6.0 4.06e+03    -  2.37e-01 2.68e-01h  1
   7 -5.8190666e+00 3.23e-02 3.83e+03  -6.0 1.75e+01  -4.5 3.90e-01 1.00e+00h  1
   8 -5.8370962e+00 1.56e-01 4.75e+01  -6.0 7.89e+00  -4.1 6.09e-01 1.00e+00h  1
   9 -5.8420820e+00 1.34e-01 3.77e+01  -6.0 9.91e+00  -4.5 4.44e-01 2.36e-01h  1
iter    objective    inf_pr   inf_du lg(mu)  ||d||  lg(rg) alpha_du alpha_pr  ls
  10 -5.8842891e+00 1.19e+00 1.96e+02  -6.0 2.04e+01  -5.0 7.79e-01 1.00e+00f  1
  11 -5.8856508e+00 6.32e-01 1.00e+02  -6.0 2.81e+01  -5.5 8.24e-01 5.68e-01h  1
  12 -5.8960690e+00 8.52e-02 1.58e+01  -6.0 6.18e+01  -6.0 6.23e-01 1.00e+00h  1
  13 -5.9111049e+00 1.21e-01 7.46e+00  -6.0 8.01e+01  -6.4 8.74e-01 1.00e+00h  1
  14 -5.9253468e+00 3.89e-01 8.22e+00  -6.0 1.13e+02  -6.9 5.99e-01 1.00e+00h  1
  15 -5.9341770e+00 8.81e-01 8.76e+00  -6.0 2.15e+02  -7.4 6.47e-01 7.49e-01h  1
  16 -5.9417180e+00 2.63e+00 4.87e+01  -6.0 1.41e+03  -7.9 8.87e-02 1.93e-01h  1
  17 -5.9544191e+00 2.66e+00 1.58e+02  -6.0 3.36e+03    -  2.67e-01 2.46e-01h  1
  18 -5.9606472e+00 2.69e+00 6.44e+02  -6.0 2.30e+03    -  7.50e-02 1.33e-01h  1
  19 -5.9893708e+00 1.33e+01 4.59e+02  -6.0 2.09e+03    -  9.73e-01 1.00e+00h  1
iter    objective    inf_pr   inf_du lg(mu)  ||d||  lg(rg) alpha_du alpha_pr  ls
  20 -5.9905519e+00 9.83e+00 3.83e+04  -6.0 3.40e+02    -  1.00e+00 2.60e-01h  1
  21 -5.9966402e+00 1.27e+00 2.20e+04  -6.0 3.32e+02    -  3.61e-01 1.00e+00h  1
  22 -6.0006417e+00 9.94e-01 4.25e+04  -6.0 3.32e+02    -  5.31e-01 3.04e-01h  1
  23 -6.0145945e+00 1.28e+00 2.83e+03  -6.0 2.42e+02    -  1.00e+00 1.00e+00h  1
  24 -6.0215913e+00 1.14e+00 5.06e+04  -6.0 3.04e+02    -  2.94e-01 3.33e-01h  1
  25r-6.0215913e+00 1.14e+00 1.00e+03   0.1 0.00e+00    -  0.00e+00 1.50e-07R  2
  26r-6.0361508e+00 1.13e+00 1.00e+03   0.1 1.18e+04    -  6.92e-06 1.61e-06f  1
  27 -6.0358785e+00 1.11e+00 1.91e+05  -6.0 1.31e+01    -  1.35e-01 1.69e-02h  1
  28 -6.0305893e+00 9.00e-01 2.42e+06  -6.0 1.18e+01    -  1.69e-02 1.93e-01h  1
  29 -6.0249530e+00 6.07e-01 1.63e+06  -6.0 1.07e+01    -  3.91e-01 3.27e-01h  1
iter    objective    inf_pr   inf_du lg(mu)  ||d||  lg(rg) alpha_du alpha_pr  ls
  30 -6.0261518e+00 4.66e-01 1.25e+06  -6.0 9.30e+00    -  1.82e-01 2.31e-01h  1
  31 -6.0123955e+00 2.22e-01 5.95e+05  -6.0 5.46e+00    -  8.64e-01 5.24e-01h  1
  32 -6.0174653e+00 7.02e-03 1.55e+01  -6.0 6.87e+00    -  9.27e-01 1.00e+00h  1
  33 -6.0205415e+00 3.02e-03 3.79e+00  -6.0 9.90e+00    -  9.02e-01 9.75e-01h  1
  34 -6.0233216e+00 4.45e-01 1.36e+00  -6.0 6.23e+01    -  8.52e-01 1.00e+00h  1
  35 -6.0251578e+00 4.78e-01 2.27e+01  -6.0 2.49e+02    -  7.61e-01 1.59e-01h  1
  36 -6.0324263e+00 9.11e-01 7.23e+00  -6.0 1.85e+02    -  4.45e-01 6.39e-01H  1
  37 -6.0270498e+00 2.74e-02 1.27e+02  -6.0 2.82e+01    -  6.24e-04 1.00e+00h  1
  38 -6.0279576e+00 4.69e-03 1.07e-01  -6.0 1.07e+01    -  9.99e-01 1.00e+00h  1
  39 -6.0276439e+00 2.88e-03 2.45e-02  -6.0 1.36e+01    -  1.00e+00 1.00e+00h  1
iter    objective    inf_pr   inf_du lg(mu)  ||d||  lg(rg) alpha_du alpha_pr  ls
  40 -6.0275943e+00 8.14e-05 1.59e-03  -6.0 1.41e+00    -  1.00e+00 1.00e+00h  1
  41 -6.0275918e+00 2.55e-07 5.20e-06  -6.0 7.87e-02    -  1.00e+00 1.00e+00h  1
  42 -6.0277014e+00 2.84e+00 3.51e+01  -7.5 5.44e+02    -  6.66e-01 7.85e-01h  1
  43 -6.0276948e+00 6.62e-01 1.16e+01  -7.5 1.31e+02    -  1.00e+00 8.36e-01h  1
  44 -6.0276913e+00 1.06e-02 1.56e-02  -7.5 2.51e+01    -  1.00e+00 1.00e+00h  1
  45 -6.0276912e+00 3.71e-07 2.68e-07  -7.5 1.63e-01    -  1.00e+00 1.00e+00h  1
  46 -6.0276927e+00 3.97e-03 7.19e-01  -9.0 1.86e+01    -  9.25e-01 8.47e-01h  1
  47 -6.0276930e+00 1.34e-04 3.41e-01  -9.0 2.89e+00    -  9.15e-01 1.00e+00h  1
  48 -6.0276930e+00 2.91e-10 4.93e-09  -9.0 1.16e-03    -  1.00e+00 1.00e+00h  1

Number of Iterations....: 48

                                   (scaled)                 (unscaled)
Objective...............:  -4.7091351228927323e+00   -6.0276929573026976e+00
Dual infeasibility......:   4.9309289599920202e-09    6.3115890687897859e-09
Constraint violation....:   2.9099972420881109e-10    2.9099972420881109e-10
Complementarity.........:   1.2860501876679313e-09    1.6461442402149521e-09
Overall NLP error.......:   4.9309289599920202e-09    6.3115890687897859e-09


Number of objective function evaluations             = 55
Number of objective gradient evaluations             = 49
Number of equality constraint evaluations            = 55
Number of inequality constraint evaluations          = 55
Number of equality constraint Jacobian evaluations   = 50
Number of inequality constraint Jacobian evaluations = 50
Number of Lagrangian Hessian evaluations             = 48
Total CPU secs in IPOPT (w/o function evaluations)   =     82.470
Total CPU secs in NLP function evaluations           =      1.756

EXIT: Optimal Solution Found.
